p edge 64 192
p 1 2
p 1 3
p 1 5
p 1 9
p 1 17
p 1 33
p 2 4
p 2 6
p 2 10
p 2 18
p 2 34
p 3 4
p 3 7
p 3 11
p 3 19
p 3 35
p 4 8
p 4 12
p 4 20
p 4 36
p 5 6
p 5 7
p 5 13
p 5 21
p 5 37
p 6 8
p 6 14
p 6 22
p 6 38
p 7 8
p 7 15
p 7 23
p 7 39
p 8 16
p 8 24
p 8 40
p 9 10
p 9 11
p 9 13
p 9 25
p 9 41
p 10 12
p 10 14
p 10 26
p 10 42
p 11 12
p 11 15
p 11 27
p 11 43
p 12 16
p 12 28
p 12 44
p 13 14
p 13 15
p 13 29
p 13 45
p 14 16
p 14 30
p 14 46
p 15 16
p 15 31
p 15 47
p 16 32
p 16 48
p 17 18
p 17 19
p 17 21
p 17 25
p 17 49
p 18 20
p 18 22
p 18 26
p 18 50
p 19 20
p 19 23
p 19 27
p 19 51
p 20 24
p 20 28
p 20 52
p 21 22
p 21 23
p 21 29
p 21 53
p 22 24
p 22 30
p 22 54
p 23 24
p 23 31
p 23 55
p 24 32
p 24 56
p 25 26
p 25 27
p 25 29
p 25 57
p 26 28
p 26 30
p 26 58
p 27 28
p 27 31
p 27 59
p 28 32
p 28 60
p 29 30
p 29 31
p 29 61
p 30 32
p 30 62
p 31 32
p 31 63
p 32 64
p 33 34
p 33 35
p 33 37
p 33 41
p 33 49
p 34 36
p 34 38
p 34 42
p 34 50
p 35 36
p 35 39
p 35 43
p 35 51
p 36 40
p 36 44
p 36 52
p 37 38
p 37 39
p 37 45
p 37 53
p 38 40
p 38 46
p 38 54
p 39 40
p 39 47
p 39 55
p 40 48
p 40 56
p 41 42
p 41 43
p 41 45
p 41 57
p 42 44
p 42 46
p 42 58
p 43 44
p 43 47
p 43 59
p 44 48
p 44 60
p 45 46
p 45 47
p 45 61
p 46 48
p 46 62
p 47 48
p 47 63
p 48 64
p 49 50
p 49 51
p 49 53
p 49 57
p 50 52
p 50 54
p 50 58
p 51 52
p 51 55
p 51 59
p 52 56
p 52 60
p 53 54
p 53 55
p 53 61
p 54 56
p 54 62
p 55 56
p 55 63
p 56 64
p 57 58
p 57 59
p 57 61
p 58 60
p 58 62
p 59 60
p 59 63
p 60 64
p 61 62
p 61 63
p 62 64
p 63 64
